\ Model _copy
\ LP format - for model browsing. Use MPS format to capture full model detail.
Minimize
 
Subject To
 R0: p[3,0] = 1
 R1: p[3,1] = 1
 R6: p[3,0] + p[3,1] <= 1
Bounds
Binaries
 p[3,0] p[3,1]
End
